Version identifier: 22.1.1.0 | 2022-11-28 | 9160aff4d
CPXPARAM_ClockType                               1
CPXPARAM_Read_DataCheck                          1
CPXPARAM_Threads                                 1
CPXPARAM_TimeLimit                               7200
CPXPARAM_MIP_Tolerances_AbsMIPGap                0
CPXPARAM_MIP_Tolerances_MIPGap                   0
CPXPARAM_MIP_Tolerances_Integrality              0
Tried aggregator 2 times.
MIP Presolve eliminated 17777 rows and 9 columns.
MIP Presolve modified 9318 coefficients.
Aggregator did 2000 substitutions.
Reduced MIP has 33214 rows, 14491 columns, and 108206 nonzeros.
Reduced MIP has 14491 binaries, 0 generals, 0 SOSs, and 0 indicators.
Presolve time = 0.20 sec. (129.92 ticks)
Probing time = 0.02 sec. (8.28 ticks)
Tried aggregator 1 time.
Detecting symmetries...
MIP Presolve eliminated 1000 rows and 1 columns.
Reduced MIP has 32214 rows, 14490 columns, and 103205 nonzeros.
Reduced MIP has 14490 binaries, 0 generals, 0 SOSs, and 0 indicators.
Presolve time = 0.20 sec. (106.72 ticks)
Probing time = 0.02 sec. (5.92 ticks)
Clique table members: 16927.
MIP emphasis: balance optimality and feasibility.
MIP search method: dynamic search.
Parallel mode: none, using 1 thread.
Root relaxation solution time = 57.84 sec. (20782.73 ticks)

        Nodes                                         Cuts/
   Node  Left     Objective  IInf  Best Integer    Best Bound    ItCnt     Gap

      0     0     8000.0000  2458                   8000.0000    36656         
      0     0     8000.0000  2927                    Cuts: 55   101758         
      0     0     8000.0000  3042                   Cuts: 142   163527         
Heuristic still looking.
Heuristic still looking.
*     0+    0                         7250.0000     8000.0000            10.34%
*     0+    0                         7254.0000     8000.0000            10.28%
      0     0        cutoff           7254.0000     8000.0000   163527   10.28%
Detecting symmetries...
      0     2     8000.0000  2355     7254.0000     8000.0000   163527   10.28%
Elapsed time = 1049.33 sec. (414446.58 ticks, tree = 0.01 MB, solutions = 2)
      1     3     8000.0000  3262     7254.0000     8000.0000   304106   10.28%
      2     4     8000.0000  3014     7254.0000     8000.0000   364164   10.28%
      3     5     8000.0000  3208     7254.0000     8000.0000   428033   10.28%
      4     6     8000.0000  2964     7254.0000     8000.0000   429906   10.28%
      5     7     8000.0000  3064     7254.0000     8000.0000   438798   10.28%
      6     8     8000.0000  3184     7254.0000     8000.0000   507763   10.28%
      7     9     8000.0000  3072     7254.0000     8000.0000   511084   10.28%
      8    10     8000.0000  3058     7254.0000     8000.0000   511352   10.28%
      9    11     8000.0000  3083     7254.0000     8000.0000   514408   10.28%
     11    13     8000.0000  3038     7254.0000     8000.0000   518732   10.28%
Elapsed time = 1910.17 sec. (767386.38 ticks, tree = 0.08 MB, solutions = 2)
     12    14     8000.0000  3034     7254.0000     8000.0000   519151   10.28%
     14    16     8000.0000  3057     7254.0000     8000.0000   520794   10.28%
     16    18     8000.0000  3044     7254.0000     8000.0000   523617   10.28%
     17    19     8000.0000  3035     7254.0000     8000.0000   528496   10.28%
     18    20     8000.0000  3093     7254.0000     8000.0000   532168   10.28%
     20    22     8000.0000  3016     7254.0000     8000.0000   534579   10.28%
     21    23     8000.0000  3026     7254.0000     8000.0000   536150   10.28%
     23    25     8000.0000  3018     7254.0000     8000.0000   540450   10.28%
     24    26     8000.0000  2983     7254.0000     8000.0000   542429   10.28%
     25    27     8000.0000  3070     7254.0000     8000.0000   553238   10.28%
Elapsed time = 2205.76 sec. (886026.10 ticks, tree = 0.19 MB, solutions = 2)
     27    29     8000.0000  3017     7254.0000     8000.0000   556153   10.28%
     28    30     8000.0000  2993     7254.0000     8000.0000   557654   10.28%
     29    31     8000.0000  3007     7254.0000     8000.0000   559984   10.28%
     30    32     8000.0000  3013     7254.0000     8000.0000   560469   10.28%
     31    33     8000.0000  3024     7254.0000     8000.0000   562091   10.28%
     33    35     8000.0000  3034     7254.0000     8000.0000   563981   10.28%
     35    37     7995.5000  3058     7254.0000     8000.0000   620574   10.28%
     36    38     8000.0000  3033     7254.0000     8000.0000   674814   10.28%
     37    39     8000.0000  2926     7254.0000     8000.0000   676790   10.28%
     40    42     8000.0000  2885     7254.0000     8000.0000   680242   10.28%
Elapsed time = 2853.16 sec. (1155550.71 ticks, tree = 0.31 MB, solutions = 2)
     41    43     8000.0000  2820     7254.0000     8000.0000   682806   10.28%
     44    46     8000.0000  2795     7254.0000     8000.0000   686519   10.28%
     47    49     8000.0000  2764     7254.0000     8000.0000   691022   10.28%
     49    51     8000.0000  2733     7254.0000     8000.0000   693435   10.28%
     52    54     8000.0000  2678     7254.0000     8000.0000   697907   10.28%
     55    57     8000.0000  2641     7254.0000     8000.0000   701409   10.28%
     58    60     8000.0000  2628     7254.0000     8000.0000   705126   10.28%
     60    62     8000.0000  2568     7254.0000     8000.0000   709747   10.28%
     63    65     8000.0000  2547     7254.0000     8000.0000   712834   10.28%
     65    67     8000.0000  2495     7254.0000     8000.0000   715754   10.28%
Elapsed time = 2884.67 sec. (1168713.23 ticks, tree = 0.51 MB, solutions = 2)
     69    71     8000.0000  2460     7254.0000     8000.0000   719410   10.28%
     72    74     8000.0000  2419     7254.0000     8000.0000   721508   10.28%
     75    77     8000.0000  2377     7254.0000     8000.0000   723786   10.28%
     76    78     8000.0000  2302     7254.0000     8000.0000   726163   10.28%
     81    83     8000.0000  2323     7254.0000     8000.0000   728661   10.28%
     85    87     8000.0000  2296     7254.0000     8000.0000   731015   10.28%
     88    90     8000.0000  2234     7254.0000     8000.0000   732712   10.28%
     89    91     8000.0000  2198     7254.0000     8000.0000   737444   10.28%
     90    92     8000.0000  2195     7254.0000     8000.0000   743744   10.28%
     92    94     8000.0000  2196     7254.0000     8000.0000   747135   10.28%
Elapsed time = 2924.67 sec. (1185303.61 ticks, tree = 0.73 MB, solutions = 2)
     94    96     8000.0000  2193     7254.0000     8000.0000   751461   10.28%
     96    98     8000.0000  2204     7254.0000     8000.0000   754976   10.28%
     98   100     8000.0000  2201     7254.0000     8000.0000   756496   10.28%
    100   102     8000.0000  2130     7254.0000     8000.0000   759472   10.28%
    104   106     8000.0000  2117     7254.0000     8000.0000   763659   10.28%
    106   108     8000.0000  2117     7254.0000     8000.0000   768520   10.28%
    107   109     7998.6667  2832     7254.0000     8000.0000   819878   10.28%
    108   110     7998.6667  2817     7254.0000     8000.0000   875574   10.28%
    109   111     7998.6667  2989     7254.0000     8000.0000   921226   10.28%
    110   112     7994.0000  2731     7254.0000     8000.0000   923758   10.28%
Elapsed time = 3401.71 sec. (1404588.07 ticks, tree = 0.89 MB, solutions = 2)
    114   116     7998.0000  2938     7254.0000     8000.0000   925678   10.28%
    117   119     7998.0000  2909     7254.0000     8000.0000   928175   10.28%
    118   120     7998.0000  2806     7254.0000     8000.0000   931265   10.28%
    119   121     7998.0000  2943     7254.0000     8000.0000   976732   10.28%
    120   122     7998.0000  2829     7254.0000     8000.0000  1024426   10.28%
    123   125     7998.0000  2733     7254.0000     8000.0000  1027949   10.28%
    126   128     7998.0000  2663     7254.0000     8000.0000  1030512   10.28%
    129   131     7998.0000  2604     7254.0000     8000.0000  1034336   10.28%
    132   134     7998.0000  2583     7254.0000     8000.0000  1038197   10.28%
    136   138     7998.0000  2564     7254.0000     8000.0000  1043002   10.28%
Elapsed time = 3642.58 sec. (1518095.32 ticks, tree = 1.12 MB, solutions = 2)
    139   141     7998.0000  2451     7254.0000     8000.0000  1048095   10.28%
    142   144     7998.0000  2437     7254.0000     8000.0000  1050511   10.28%
    145   147     7998.0000  2393     7254.0000     8000.0000  1054439   10.28%
    151   153     7998.0000  2325     7254.0000     8000.0000  1058628   10.28%
    153   155     7998.0000  2277     7254.0000     8000.0000  1061663   10.28%
    154   156     7998.0000  2276     7254.0000     8000.0000  1064527   10.28%
    159   161     7998.0000  2269     7254.0000     8000.0000  1066297   10.28%
    162   164     7998.0000  2174     7254.0000     8000.0000  1069757   10.28%
    164   166     7998.0000  2163     7254.0000     8000.0000  1071741   10.28%
    168   170     7998.0000  2098     7254.0000     8000.0000  1074993   10.28%
Elapsed time = 3673.84 sec. (1531953.42 ticks, tree = 1.41 MB, solutions = 2)
    170   172     7998.0000  2063     7254.0000     8000.0000  1079905   10.28%
    176   178     7998.0000  2041     7254.0000     8000.0000  1085281   10.28%
    180   182     7998.0000  1985     7254.0000     8000.0000  1086832   10.28%
    183   185     7998.0000  1949     7254.0000     8000.0000  1094666   10.28%
    188   190     7998.0000  1940     7254.0000     8000.0000  1097235   10.28%
    195   197     7998.0000  1918     7254.0000     8000.0000  1104226   10.28%
    198   200     7998.0000  1866     7254.0000     8000.0000  1112726   10.28%
    200   202     7998.0000  1851     7254.0000     8000.0000  1112810   10.28%
    207   209     7998.0000  1873     7254.0000     8000.0000  1115933   10.28%
    208   210     7998.0000  1841     7254.0000     8000.0000  1118964   10.28%
Elapsed time = 3759.27 sec. (1573630.80 ticks, tree = 1.78 MB, solutions = 2)
    211   213     7998.0000  1857     7254.0000     8000.0000  1121640   10.28%
    213   215     7998.0000  1846     7254.0000     8000.0000  1129584   10.28%
    219   221     7998.0000  1848     7254.0000     8000.0000  1136009   10.28%
    222   224     7998.0000  1820     7254.0000     8000.0000  1151452   10.28%
    223   225     7998.0000  1784     7254.0000     8000.0000  1153713   10.28%
    227   229     7998.0000  1813     7254.0000     8000.0000  1163032   10.28%
    228   230     7998.0000  2695     7254.0000     8000.0000  1207134   10.28%
    229   231     7998.0000  1808     7254.0000     8000.0000  1209988   10.28%
    233   235     7998.0000  1793     7254.0000     8000.0000  1212096   10.28%
    242   244     7998.0000  1718     7254.0000     8000.0000  1219535   10.28%
Elapsed time = 3909.02 sec. (1644910.39 ticks, tree = 2.10 MB, solutions = 2)
    246   248     7998.0000  2603     7254.0000     8000.0000  1260579   10.28%
    254   256     7998.0000  1702     7254.0000     8000.0000  1269154   10.28%
    261   263     7998.0000  1699     7254.0000     8000.0000  1279625   10.28%
    265   267     7998.0000  2556     7254.0000     8000.0000  1317982   10.28%
    269   271     7998.0000  1659     7254.0000     8000.0000  1333895   10.28%
    271   273     7998.0000  2489     7254.0000     8000.0000  1378395   10.28%
    273   275     7998.0000  1619     7254.0000     8000.0000  1399998   10.28%
    274   276     7998.0000  2493     7254.0000     8000.0000  1434598   10.28%
    280   282     7998.0000  1606     7254.0000     8000.0000  1449567   10.28%
    281   283     7998.0000  2490     7254.0000     8000.0000  1482503   10.28%
Elapsed time = 4360.24 sec. (1864837.15 ticks, tree = 2.47 MB, solutions = 2)
    282   284     7998.0000  1604     7254.0000     8000.0000  1492364   10.28%
    285   287     7998.0000  2479     7254.0000     8000.0000  1529029   10.28%
    288   290     7998.0000  1621     7254.0000     8000.0000  1537618   10.28%
    291   293     7998.0000  2506     7254.0000     8000.0000  1579472   10.28%
    297   299     7998.0000  1588     7254.0000     8000.0000  1601419   10.28%
    298   300     7998.0000  2491     7254.0000     8000.0000  1636356   10.28%
    299   301     7998.0000  2479     7254.0000     8000.0000  1670567   10.28%
    306   308     7998.0000  2308     7254.0000     8000.0000  1678515   10.28%
    311   313     7998.0000  2199     7254.0000     8000.0000  1687419   10.28%
    317   319     7998.0000  2148     7254.0000     8000.0000  1696997   10.28%
Elapsed time = 4719.98 sec. (2040628.56 ticks, tree = 2.82 MB, solutions = 2)
    325   327     7998.0000  2105     7254.0000     8000.0000  1707377   10.28%
    331   333     7998.0000  2000     7254.0000     8000.0000  1722004   10.28%
    346   348     7998.0000  1960     7254.0000     8000.0000  1733526   10.28%
    349   351     7998.0000  1858     7254.0000     8000.0000  1743757   10.28%
    351   353     7998.0000  1810     7254.0000     8000.0000  1763642   10.28%
    355   357     7998.0000  1817     7254.0000     8000.0000  1772237   10.28%
    362   364     7998.0000  1788     7254.0000     8000.0000  1784551   10.28%
    369   371     7998.0000  1750     7254.0000     8000.0000  1800411   10.28%
    373   375     7998.0000  1612     7254.0000     8000.0000  1824046   10.28%
    374   376     7998.0000  2099     7254.0000     8000.0000  1843067   10.28%
Elapsed time = 4866.60 sec. (2109517.75 ticks, tree = 3.35 MB, solutions = 2)
    375   377     7998.0000  1633     7254.0000     8000.0000  1853403   10.28%
    379   381     7998.0000  1344     7254.0000     8000.0000  1872635   10.28%
    381   383     7998.0000  1323     7254.0000     8000.0000  1889705   10.28%
    386   388     7998.0000  1719     7254.0000     8000.0000  1928481   10.28%
    389   391     7998.0000  1300     7254.0000     8000.0000  1944232   10.28%
    390   392     7998.0000  1295     7254.0000     8000.0000  1955782   10.28%
    391   393     7998.0000  1557     7254.0000     8000.0000  1976159   10.28%
    392   394     7997.9369  1904     7254.0000     8000.0000  2025859   10.28%
    394   396     7998.0000  1697     7254.0000     8000.0000  2071778   10.28%
    400   402     7998.0000  1281     7254.0000     8000.0000  2086460   10.28%
Elapsed time = 5114.82 sec. (2222168.55 ticks, tree = 3.78 MB, solutions = 2)
    404   406     7997.9666  1838     7254.0000     8000.0000  2133989   10.28%
    409   411     7998.0000  1628     7254.0000     8000.0000  2156266   10.28%
    410   412     7998.0000  1661     7254.0000     8000.0000  2184970   10.28%
    411   413     7998.0000  1621     7254.0000     8000.0000  2195450   10.28%
    412   414     7997.9844  1955     7254.0000     8000.0000  2225484   10.28%
    413   415     7997.8750  1776     7254.0000     8000.0000  2249460   10.28%
    419   421     7992.0000  1682     7254.0000     8000.0000  2273910   10.28%
    421   423     7991.9111  1743     7254.0000     8000.0000  2294119   10.28%
    423   425     7991.7302  1726     7254.0000     8000.0000  2309707   10.28%
    424   426     7991.7621  1828     7254.0000     8000.0000  2333942   10.28%
Elapsed time = 5374.42 sec. (2335999.58 ticks, tree = 4.01 MB, solutions = 2)
    425   427     7990.6667  1595     7254.0000     8000.0000  2345034   10.28%
    426   428     7990.5467  1729     7254.0000     8000.0000  2351216   10.28%
    429   431     7985.9992  1728     7254.0000     8000.0000  2371119   10.28%
    430   432     7985.9820  1736     7254.0000     8000.0000  2386633   10.28%
    431   433     7985.9306  1639     7254.0000     8000.0000  2400521   10.28%
    434   436     7985.9180  1685     7254.0000     8000.0000  2413963   10.28%
    437   439     7985.9118  1693     7254.0000     8000.0000  2436040   10.28%
    440   442     7985.8571  1672     7254.0000     8000.0000  2443376   10.28%
    441   443     7985.8925  1658     7254.0000     8000.0000  2453269   10.28%
    444   446     7985.4561  1727     7254.0000     8000.0000  2477141   10.28%
Elapsed time = 5536.90 sec. (2409038.18 ticks, tree = 4.21 MB, solutions = 2)
    447   449     7985.8889  1649     7254.0000     8000.0000  2485235   10.28%
    448   450     7985.8617  1688     7254.0000     8000.0000  2494600   10.28%
    449   451     7985.2235  1842     7254.0000     8000.0000  2504020   10.28%
    451   453     7985.8299  1637     7254.0000     8000.0000  2514159   10.28%
    452   454     7985.7760  1638     7254.0000     8000.0000  2527229   10.28%
    453   455     7985.2231  1718     7254.0000     8000.0000  2545722   10.28%
    454   456     7985.4016  1756     7254.0000     8000.0000  2561445   10.28%
    455   457     7985.2538  1803     7254.0000     8000.0000  2573401   10.28%
    456   458     7981.9755  1980     7254.0000     8000.0000  2583606   10.28%
    457   459     7965.4360  1956     7254.0000     8000.0000  2626151   10.28%
Elapsed time = 5697.36 sec. (2483167.74 ticks, tree = 4.33 MB, solutions = 2)
    461   463     7981.6271  1849     7254.0000     8000.0000  2639469   10.28%
    462   464     7980.5617  1738     7254.0000     8000.0000  2648697   10.28%
    464   466     7975.8062  1723     7254.0000     8000.0000  2664581   10.28%
    466   468     7975.5928  1761     7254.0000     8000.0000  2677047   10.28%
    467   469     7974.9655  1645     7254.0000     8000.0000  2692811   10.28%
    469   471     7969.3333  1630     7254.0000     8000.0000  2723377   10.28%
    477   479     7962.6454  1713     7254.0000     8000.0000  2736978   10.28%
    482   484     7966.6667  1611     7254.0000     8000.0000  2747913   10.28%
    484   486     7961.9601  1685     7254.0000     8000.0000  2768898   10.28%
    486   488     7958.0539  1785     7254.0000     8000.0000  2799181   10.28%
Elapsed time = 5879.02 sec. (2561765.74 ticks, tree = 4.61 MB, solutions = 2)
*   489+  487                         7312.0000     8000.0000             9.41%
    489   489     8000.0000  3010     7312.0000     8000.0000  2856987    9.41%
    490   490     8000.0000  2840     7312.0000     8000.0000  2921577    9.41%
*   492+  490                         7314.0000     8000.0000             9.38%
    493   493     8000.0000  2098     7314.0000     8000.0000  2929420    9.38%
    497   497     8000.0000  2110     7314.0000     8000.0000  2937855    9.38%
    498   498     7995.5000  2005     7314.0000     8000.0000  2946395    9.38%
Starting limited solution polishing.
*   500+  496                         7356.0000     8000.0000             8.75%
*   500+  496                         7396.0000     8000.0000             8.17%

Clique cuts applied:  3
Implied bound cuts applied:  6
Zero-half cuts applied:  51
Gomory fractional cuts applied:  2

Root node processing (before b&c):
  Real time             = 1049.30 sec. (414434.88 ticks)
Sequential b&c:
  Real time             = 6150.72 sec. (3031603.71 ticks)
                          ------------
Total (root+branch&cut) = 7200.02 sec. (3446038.60 ticks)
Solution is feasible.

---------------------
@@@ MIP_time_limit_feasible
>>> Benchmark sw100-2.cnf k 10 OPT 7396 TimeCost 7241.920399427414 TimeSolve 7228.437960147858 TimeRead 0.019010305404663086 TimeTrans 13.463428974151611
